% Auto-generated by scripts/generate_dzn.py
% problem_type   = polyominoes
% instance       = polyominoes_22
% source_json    = instances_json/0_low_blowup/polyominoes_22.json
% blowup         = 0.6523702031602708
% representation = DFA

mode = 0;

size = 6;
tiles = 5;
n_expressions = 5;
Q = 99;
S = 6;
q0 = [1, 1, 1, 1, 1];
F = [{70}, {31}, {76}, {49}, {2}];
weights = [2, 10, 8, 9, 1, 6, 5, 5, 10, 9, 8, 8, 8, 6, 7, 10, 10, 5, 6, 10, 5, 4, 6, 4, 4, 2, 2, 1, 3, 2, 5, 6, 3, 10, 8, 4];
d_dfa = array3d(1..5, 1..99, 1..6, [
  % k = 1
    2, 1, 1, 1, 1, 1,
    4, 3, 3, 3, 3, 3,
    75, 5, 5, 5, 5, 5,
    7, 6, 6, 6, 6, 6,
    75, 8, 8, 8, 8, 8,
    75, 9, 9, 9, 9, 9,
    10, 75, 75, 75, 75, 75,
    75, 11, 11, 11, 11, 11,
    75, 12, 12, 12, 12, 12,
    75, 13, 13, 13, 13, 13,
    75, 14, 14, 14, 14, 14,
    75, 15, 15, 15, 15, 15,
    75, 16, 16, 16, 16, 16,
    18, 17, 17, 17, 17, 17,
    20, 19, 19, 19, 19, 19,
    75, 21, 21, 21, 21, 21,
    22, 75, 75, 75, 75, 75,
    23, 75, 75, 75, 75, 75,
    24, 75, 75, 75, 75, 75,
    25, 75, 75, 75, 75, 75,
    27, 26, 26, 26, 26, 26,
    28, 75, 75, 75, 75, 75,
    30, 29, 29, 29, 29, 29,
    31, 75, 75, 75, 75, 75,
    32, 75, 75, 75, 75, 75,
    27, 75, 75, 75, 75, 75,
    33, 75, 75, 75, 75, 75,
    75, 34, 34, 34, 34, 34,
    75, 35, 35, 35, 35, 35,
    75, 36, 36, 36, 36, 36,
    37, 75, 75, 75, 75, 75,
    75, 38, 38, 38, 38, 38,
    39, 75, 75, 75, 75, 75,
    75, 40, 40, 40, 40, 40,
    75, 41, 41, 41, 41, 41,
    75, 42, 42, 42, 42, 42,
    75, 43, 43, 43, 43, 43,
    75, 44, 44, 44, 44, 44,
    75, 45, 45, 45, 45, 45,
    75, 46, 46, 46, 46, 46,
    75, 47, 47, 47, 47, 47,
    75, 48, 48, 48, 48, 48,
    75, 49, 49, 49, 49, 49,
    75, 50, 50, 50, 50, 50,
    75, 51, 51, 51, 51, 51,
    75, 52, 52, 52, 52, 52,
    53, 75, 75, 75, 75, 75,
    55, 54, 54, 54, 54, 54,
    75, 56, 56, 56, 56, 56,
    75, 57, 57, 57, 57, 57,
    75, 58, 58, 58, 58, 58,
    75, 59, 59, 59, 59, 59,
    60, 75, 75, 75, 75, 75,
    55, 75, 75, 75, 75, 75,
    61, 75, 75, 75, 75, 75,
    75, 27, 27, 27, 27, 27,
    75, 62, 62, 62, 62, 62,
    75, 63, 63, 63, 63, 63,
    64, 75, 75, 75, 75, 75,
    65, 75, 75, 75, 75, 75,
    66, 75, 75, 75, 75, 75,
    67, 75, 75, 75, 75, 75,
    75, 66, 66, 66, 66, 66,
    68, 75, 75, 75, 75, 75,
    75, 69, 69, 69, 69, 69,
    70, 75, 75, 75, 75, 75,
    71, 75, 75, 75, 75, 75,
    69, 75, 75, 75, 75, 75,
    75, 72, 72, 72, 72, 72,
    75, 70, 70, 70, 70, 70,
    75, 39, 39, 39, 39, 39,
    75, 73, 73, 73, 73, 73,
    75, 74, 74, 74, 74, 74,
    75, 61, 61, 61, 61, 61,
    75, 75, 75, 75, 75, 75,
    0, 0, 0, 0, 0, 0,
    0, 0, 0, 0, 0, 0,
    0, 0, 0, 0, 0, 0,
    0, 0, 0, 0, 0, 0,
    0, 0, 0, 0, 0, 0,
    0, 0, 0, 0, 0, 0,
    0, 0, 0, 0, 0, 0,
    0, 0, 0, 0, 0, 0,
    0, 0, 0, 0, 0, 0,
    0, 0, 0, 0, 0, 0,
    0, 0, 0, 0, 0, 0,
    0, 0, 0, 0, 0, 0,
    0, 0, 0, 0, 0, 0,
    0, 0, 0, 0, 0, 0,
    0, 0, 0, 0, 0, 0,
    0, 0, 0, 0, 0, 0,
    0, 0, 0, 0, 0, 0,
    0, 0, 0, 0, 0, 0,
    0, 0, 0, 0, 0, 0,
    0, 0, 0, 0, 0, 0,
    0, 0, 0, 0, 0, 0,
    0, 0, 0, 0, 0, 0,
    0, 0, 0, 0, 0, 0,
    0, 0, 0, 0, 0, 0,

  % k = 2
    1, 2, 1, 1, 1, 1,
    3, 4, 3, 3, 3, 3,
    5, 59, 5, 5, 5, 5,
    59, 6, 59, 59, 59, 59,
    7, 59, 7, 7, 7, 7,
    8, 9, 8, 8, 8, 8,
    10, 59, 10, 10, 10, 10,
    11, 59, 11, 11, 11, 11,
    59, 12, 59, 59, 59, 59,
    13, 59, 13, 13, 13, 13,
    14, 59, 14, 14, 14, 14,
    15, 59, 15, 15, 15, 15,
    16, 17, 16, 16, 16, 16,
    59, 18, 59, 59, 59, 59,
    19, 59, 19, 19, 19, 19,
    59, 20, 59, 59, 59, 59,
    59, 21, 59, 59, 59, 59,
    59, 22, 59, 59, 59, 59,
    22, 59, 22, 22, 22, 22,
    59, 23, 59, 59, 59, 59,
    24, 59, 24, 24, 24, 24,
    59, 25, 59, 59, 59, 59,
    26, 59, 26, 26, 26, 26,
    27, 59, 27, 27, 27, 27,
    59, 28, 59, 59, 59, 59,
    29, 59, 29, 29, 29, 29,
    30, 59, 30, 30, 30, 30,
    59, 31, 59, 59, 59, 59,
    32, 59, 32, 32, 32, 32,
    33, 59, 33, 33, 33, 33,
    31, 59, 31, 31, 31, 31,
    34, 59, 34, 34, 34, 34,
    35, 59, 35, 35, 35, 35,
    36, 59, 36, 36, 36, 36,
    59, 37, 59, 59, 59, 59,
    59, 38, 59, 59, 59, 59,
    59, 39, 59, 59, 59, 59,
    59, 40, 59, 59, 59, 59,
    41, 59, 41, 41, 41, 41,
    42, 59, 42, 42, 42, 42,
    43, 59, 43, 43, 43, 43,
    44, 59, 44, 44, 44, 44,
    45, 59, 45, 45, 45, 45,
    46, 59, 46, 46, 46, 46,
    47, 59, 47, 47, 47, 47,
    48, 59, 48, 48, 48, 48,
    49, 59, 49, 49, 49, 49,
    50, 59, 50, 50, 50, 50,
    59, 51, 59, 59, 59, 59,
    59, 52, 59, 59, 59, 59,
    59, 53, 59, 59, 59, 59,
    59, 54, 59, 59, 59, 59,
    54, 59, 54, 54, 54, 54,
    55, 59, 55, 55, 55, 55,
    56, 59, 56, 56, 56, 56,
    57, 59, 57, 57, 57, 57,
    58, 59, 58, 58, 58, 58,
    28, 59, 28, 28, 28, 28,
    59, 59, 59, 59, 59, 59,
    0, 0, 0, 0, 0, 0,
    0, 0, 0, 0, 0, 0,
    0, 0, 0, 0, 0, 0,
    0, 0, 0, 0, 0, 0,
    0, 0, 0, 0, 0, 0,
    0, 0, 0, 0, 0, 0,
    0, 0, 0, 0, 0, 0,
    0, 0, 0, 0, 0, 0,
    0, 0, 0, 0, 0, 0,
    0, 0, 0, 0, 0, 0,
    0, 0, 0, 0, 0, 0,
    0, 0, 0, 0, 0, 0,
    0, 0, 0, 0, 0, 0,
    0, 0, 0, 0, 0, 0,
    0, 0, 0, 0, 0, 0,
    0, 0, 0, 0, 0, 0,
    0, 0, 0, 0, 0, 0,
    0, 0, 0, 0, 0, 0,
    0, 0, 0, 0, 0, 0,
    0, 0, 0, 0, 0, 0,
    0, 0, 0, 0, 0, 0,
    0, 0, 0, 0, 0, 0,
    0, 0, 0, 0, 0, 0,
    0, 0, 0, 0, 0, 0,
    0, 0, 0, 0, 0, 0,
    0, 0, 0, 0, 0, 0,
    0, 0, 0, 0, 0, 0,
    0, 0, 0, 0, 0, 0,
    0, 0, 0, 0, 0, 0,
    0, 0, 0, 0, 0, 0,
    0, 0, 0, 0, 0, 0,
    0, 0, 0, 0, 0, 0,
    0, 0, 0, 0, 0, 0,
    0, 0, 0, 0, 0, 0,
    0, 0, 0, 0, 0, 0,
    0, 0, 0, 0, 0, 0,
    0, 0, 0, 0, 0, 0,
    0, 0, 0, 0, 0, 0,
    0, 0, 0, 0, 0, 0,
    0, 0, 0, 0, 0, 0,

  % k = 3
    1, 1, 2, 1, 1, 1,
    4, 4, 3, 4, 4, 4,
    6, 6, 5, 6, 6, 6,
    7, 7, 99, 7, 7, 7,
    99, 99, 8, 99, 99, 99,
    9, 9, 99, 9, 9, 9,
    10, 10, 99, 10, 10, 10,
    99, 99, 11, 99, 99, 99,
    12, 12, 99, 12, 12, 12,
    13, 13, 99, 13, 13, 13,
    14, 14, 99, 14, 14, 14,
    16, 16, 15, 16, 16, 16,
    18, 18, 17, 18, 18, 18,
    19, 19, 99, 19, 19, 19,
    99, 99, 20, 99, 99, 99,
    21, 21, 99, 21, 21, 21,
    99, 99, 22, 99, 99, 99,
    23, 23, 99, 23, 23, 23,
    25, 25, 24, 25, 25, 25,
    99, 99, 26, 99, 99, 99,
    99, 99, 27, 99, 99, 99,
    99, 99, 28, 99, 99, 99,
    99, 99, 29, 99, 99, 99,
    99, 99, 30, 99, 99, 99,
    99, 99, 31, 99, 99, 99,
    99, 99, 32, 99, 99, 99,
    99, 99, 33, 99, 99, 99,
    34, 34, 99, 34, 34, 34,
    99, 99, 35, 99, 99, 99,
    99, 99, 36, 99, 99, 99,
    99, 99, 37, 99, 99, 99,
    38, 38, 99, 38, 38, 38,
    40, 40, 39, 40, 40, 40,
    41, 41, 99, 41, 41, 41,
    99, 99, 42, 99, 99, 99,
    99, 99, 43, 99, 99, 99,
    99, 99, 44, 99, 99, 99,
    45, 45, 99, 45, 45, 45,
    99, 99, 38, 99, 99, 99,
    46, 46, 99, 46, 46, 46,
    47, 47, 99, 47, 47, 47,
    48, 48, 99, 48, 48, 48,
    49, 49, 99, 49, 49, 49,
    99, 99, 50, 99, 99, 99,
    51, 51, 99, 51, 51, 51,
    52, 52, 99, 52, 52, 52,
    53, 53, 99, 53, 53, 53,
    54, 54, 99, 54, 54, 54,
    50, 50, 99, 50, 50, 50,
    55, 55, 99, 55, 55, 55,
    99, 99, 56, 99, 99, 99,
    57, 57, 99, 57, 57, 57,
    99, 99, 58, 99, 99, 99,
    59, 59, 99, 59, 59, 59,
    60, 60, 99, 60, 60, 60,
    99, 99, 61, 99, 99, 99,
    63, 63, 62, 63, 63, 63,
    99, 99, 64, 99, 99, 99,
    65, 65, 99, 65, 65, 65,
    66, 66, 99, 66, 66, 66,
    99, 99, 66, 99, 99, 99,
    99, 99, 67, 99, 99, 99,
    99, 99, 68, 99, 99, 99,
    99, 99, 69, 99, 99, 99,
    99, 99, 70, 99, 99, 99,
    99, 99, 71, 99, 99, 99,
    99, 99, 72, 99, 99, 99,
    99, 99, 73, 99, 99, 99,
    74, 74, 99, 74, 74, 74,
    99, 99, 75, 99, 99, 99,
    99, 99, 76, 99, 99, 99,
    77, 77, 99, 77, 77, 77,
    99, 99, 78, 99, 99, 99,
    79, 79, 99, 79, 79, 79,
    99, 99, 74, 99, 99, 99,
    76, 76, 99, 76, 76, 76,
    80, 80, 99, 80, 80, 80,
    81, 81, 99, 81, 81, 81,
    82, 82, 99, 82, 82, 82,
    83, 83, 99, 83, 83, 83,
    84, 84, 99, 84, 84, 84,
    85, 85, 99, 85, 85, 85,
    86, 86, 99, 86, 86, 86,
    87, 87, 99, 87, 87, 87,
    30, 30, 99, 30, 30, 30,
    99, 99, 88, 99, 99, 99,
    89, 89, 99, 89, 89, 89,
    99, 99, 90, 99, 99, 99,
    99, 99, 91, 99, 99, 99,
    99, 99, 92, 99, 99, 99,
    99, 99, 93, 99, 99, 99,
    94, 94, 99, 94, 94, 94,
    99, 99, 95, 99, 99, 99,
    95, 95, 99, 95, 95, 95,
    96, 96, 99, 96, 96, 96,
    97, 97, 99, 97, 97, 97,
    98, 98, 99, 98, 98, 98,
    71, 71, 99, 71, 71, 71,
    99, 99, 99, 99, 99, 99,

  % k = 4
    1, 1, 1, 2, 1, 1,
    3, 3, 3, 4, 3, 3,
    5, 5, 5, 53, 5, 5,
    6, 6, 6, 7, 6, 6,
    8, 8, 8, 53, 8, 8,
    9, 9, 9, 53, 9, 9,
    53, 53, 53, 10, 53, 53,
    11, 11, 11, 53, 11, 11,
    12, 12, 12, 53, 12, 12,
    13, 13, 13, 53, 13, 13,
    14, 14, 14, 15, 14, 14,
    16, 16, 16, 53, 16, 16,
    17, 17, 17, 53, 17, 17,
    18, 18, 18, 53, 18, 18,
    53, 53, 53, 19, 53, 53,
    20, 20, 20, 53, 20, 20,
    21, 21, 21, 53, 21, 21,
    53, 53, 53, 22, 53, 53,
    53, 53, 53, 23, 53, 53,
    53, 53, 53, 24, 53, 53,
    25, 25, 25, 26, 25, 25,
    53, 53, 53, 27, 53, 53,
    28, 28, 28, 53, 28, 28,
    53, 53, 53, 29, 53, 53,
    53, 53, 53, 30, 53, 53,
    53, 53, 53, 31, 53, 53,
    53, 53, 53, 28, 53, 53,
    32, 32, 32, 53, 32, 32,
    10, 10, 10, 53, 10, 10,
    53, 53, 53, 33, 53, 53,
    53, 53, 53, 34, 53, 53,
    35, 35, 35, 53, 35, 35,
    53, 53, 53, 36, 53, 53,
    37, 37, 37, 53, 37, 37,
    38, 38, 38, 53, 38, 38,
    39, 39, 39, 53, 39, 39,
    36, 36, 36, 53, 36, 36,
    40, 40, 40, 41, 40, 40,
    42, 42, 42, 53, 42, 42,
    53, 53, 53, 43, 53, 53,
    53, 53, 53, 44, 53, 53,
    45, 45, 45, 53, 45, 45,
    53, 53, 53, 46, 53, 53,
    53, 53, 53, 47, 53, 53,
    47, 47, 47, 53, 47, 47,
    48, 48, 48, 53, 48, 48,
    53, 53, 53, 49, 53, 53,
    50, 50, 50, 53, 50, 50,
    49, 49, 49, 53, 49, 49,
    51, 51, 51, 53, 51, 51,
    52, 52, 52, 53, 52, 52,
    44, 44, 44, 53, 44, 44,
    53, 53, 53, 53, 53, 53,
    0, 0, 0, 0, 0, 0,
    0, 0, 0, 0, 0, 0,
    0, 0, 0, 0, 0, 0,
    0, 0, 0, 0, 0, 0,
    0, 0, 0, 0, 0, 0,
    0, 0, 0, 0, 0, 0,
    0, 0, 0, 0, 0, 0,
    0, 0, 0, 0, 0, 0,
    0, 0, 0, 0, 0, 0,
    0, 0, 0, 0, 0, 0,
    0, 0, 0, 0, 0, 0,
    0, 0, 0, 0, 0, 0,
    0, 0, 0, 0, 0, 0,
    0, 0, 0, 0, 0, 0,
    0, 0, 0, 0, 0, 0,
    0, 0, 0, 0, 0, 0,
    0, 0, 0, 0, 0, 0,
    0, 0, 0, 0, 0, 0,
    0, 0, 0, 0, 0, 0,
    0, 0, 0, 0, 0, 0,
    0, 0, 0, 0, 0, 0,
    0, 0, 0, 0, 0, 0,
    0, 0, 0, 0, 0, 0,
    0, 0, 0, 0, 0, 0,
    0, 0, 0, 0, 0, 0,
    0, 0, 0, 0, 0, 0,
    0, 0, 0, 0, 0, 0,
    0, 0, 0, 0, 0, 0,
    0, 0, 0, 0, 0, 0,
    0, 0, 0, 0, 0, 0,
    0, 0, 0, 0, 0, 0,
    0, 0, 0, 0, 0, 0,
    0, 0, 0, 0, 0, 0,
    0, 0, 0, 0, 0, 0,
    0, 0, 0, 0, 0, 0,
    0, 0, 0, 0, 0, 0,
    0, 0, 0, 0, 0, 0,
    0, 0, 0, 0, 0, 0,
    0, 0, 0, 0, 0, 0,
    0, 0, 0, 0, 0, 0,
    0, 0, 0, 0, 0, 0,
    0, 0, 0, 0, 0, 0,
    0, 0, 0, 0, 0, 0,
    0, 0, 0, 0, 0, 0,
    0, 0, 0, 0, 0, 0,
    0, 0, 0, 0, 0, 0,

  % k = 5
    1, 1, 1, 1, 2, 1,
    2, 2, 2, 2, 3, 2,
    3, 3, 3, 3, 3, 3,
    0, 0, 0, 0, 0, 0,
    0, 0, 0, 0, 0, 0,
    0, 0, 0, 0, 0, 0,
    0, 0, 0, 0, 0, 0,
    0, 0, 0, 0, 0, 0,
    0, 0, 0, 0, 0, 0,
    0, 0, 0, 0, 0, 0,
    0, 0, 0, 0, 0, 0,
    0, 0, 0, 0, 0, 0,
    0, 0, 0, 0, 0, 0,
    0, 0, 0, 0, 0, 0,
    0, 0, 0, 0, 0, 0,
    0, 0, 0, 0, 0, 0,
    0, 0, 0, 0, 0, 0,
    0, 0, 0, 0, 0, 0,
    0, 0, 0, 0, 0, 0,
    0, 0, 0, 0, 0, 0,
    0, 0, 0, 0, 0, 0,
    0, 0, 0, 0, 0, 0,
    0, 0, 0, 0, 0, 0,
    0, 0, 0, 0, 0, 0,
    0, 0, 0, 0, 0, 0,
    0, 0, 0, 0, 0, 0,
    0, 0, 0, 0, 0, 0,
    0, 0, 0, 0, 0, 0,
    0, 0, 0, 0, 0, 0,
    0, 0, 0, 0, 0, 0,
    0, 0, 0, 0, 0, 0,
    0, 0, 0, 0, 0, 0,
    0, 0, 0, 0, 0, 0,
    0, 0, 0, 0, 0, 0,
    0, 0, 0, 0, 0, 0,
    0, 0, 0, 0, 0, 0,
    0, 0, 0, 0, 0, 0,
    0, 0, 0, 0, 0, 0,
    0, 0, 0, 0, 0, 0,
    0, 0, 0, 0, 0, 0,
    0, 0, 0, 0, 0, 0,
    0, 0, 0, 0, 0, 0,
    0, 0, 0, 0, 0, 0,
    0, 0, 0, 0, 0, 0,
    0, 0, 0, 0, 0, 0,
    0, 0, 0, 0, 0, 0,
    0, 0, 0, 0, 0, 0,
    0, 0, 0, 0, 0, 0,
    0, 0, 0, 0, 0, 0,
    0, 0, 0, 0, 0, 0,
    0, 0, 0, 0, 0, 0,
    0, 0, 0, 0, 0, 0,
    0, 0, 0, 0, 0, 0,
    0, 0, 0, 0, 0, 0,
    0, 0, 0, 0, 0, 0,
    0, 0, 0, 0, 0, 0,
    0, 0, 0, 0, 0, 0,
    0, 0, 0, 0, 0, 0,
    0, 0, 0, 0, 0, 0,
    0, 0, 0, 0, 0, 0,
    0, 0, 0, 0, 0, 0,
    0, 0, 0, 0, 0, 0,
    0, 0, 0, 0, 0, 0,
    0, 0, 0, 0, 0, 0,
    0, 0, 0, 0, 0, 0,
    0, 0, 0, 0, 0, 0,
    0, 0, 0, 0, 0, 0,
    0, 0, 0, 0, 0, 0,
    0, 0, 0, 0, 0, 0,
    0, 0, 0, 0, 0, 0,
    0, 0, 0, 0, 0, 0,
    0, 0, 0, 0, 0, 0,
    0, 0, 0, 0, 0, 0,
    0, 0, 0, 0, 0, 0,
    0, 0, 0, 0, 0, 0,
    0, 0, 0, 0, 0, 0,
    0, 0, 0, 0, 0, 0,
    0, 0, 0, 0, 0, 0,
    0, 0, 0, 0, 0, 0,
    0, 0, 0, 0, 0, 0,
    0, 0, 0, 0, 0, 0,
    0, 0, 0, 0, 0, 0,
    0, 0, 0, 0, 0, 0,
    0, 0, 0, 0, 0, 0,
    0, 0, 0, 0, 0, 0,
    0, 0, 0, 0, 0, 0,
    0, 0, 0, 0, 0, 0,
    0, 0, 0, 0, 0, 0,
    0, 0, 0, 0, 0, 0,
    0, 0, 0, 0, 0, 0,
    0, 0, 0, 0, 0, 0,
    0, 0, 0, 0, 0, 0,
    0, 0, 0, 0, 0, 0,
    0, 0, 0, 0, 0, 0,
    0, 0, 0, 0, 0, 0,
    0, 0, 0, 0, 0, 0,
    0, 0, 0, 0, 0, 0,
    0, 0, 0, 0, 0, 0,
    0, 0, 0, 0, 0, 0
]);
d_nfa = array3d(1..5, 1..99, 1..6, [
  % k = 1
    {}, {}, {}, {}, {}, {},
    {}, {}, {}, {}, {}, {},
    {}, {}, {}, {}, {}, {},
    {}, {}, {}, {}, {}, {},
    {}, {}, {}, {}, {}, {},
    {}, {}, {}, {}, {}, {},
    {}, {}, {}, {}, {}, {},
    {}, {}, {}, {}, {}, {},
    {}, {}, {}, {}, {}, {},
    {}, {}, {}, {}, {}, {},
    {}, {}, {}, {}, {}, {},
    {}, {}, {}, {}, {}, {},
    {}, {}, {}, {}, {}, {},
    {}, {}, {}, {}, {}, {},
    {}, {}, {}, {}, {}, {},
    {}, {}, {}, {}, {}, {},
    {}, {}, {}, {}, {}, {},
    {}, {}, {}, {}, {}, {},
    {}, {}, {}, {}, {}, {},
    {}, {}, {}, {}, {}, {},
    {}, {}, {}, {}, {}, {},
    {}, {}, {}, {}, {}, {},
    {}, {}, {}, {}, {}, {},
    {}, {}, {}, {}, {}, {},
    {}, {}, {}, {}, {}, {},
    {}, {}, {}, {}, {}, {},
    {}, {}, {}, {}, {}, {},
    {}, {}, {}, {}, {}, {},
    {}, {}, {}, {}, {}, {},
    {}, {}, {}, {}, {}, {},
    {}, {}, {}, {}, {}, {},
    {}, {}, {}, {}, {}, {},
    {}, {}, {}, {}, {}, {},
    {}, {}, {}, {}, {}, {},
    {}, {}, {}, {}, {}, {},
    {}, {}, {}, {}, {}, {},
    {}, {}, {}, {}, {}, {},
    {}, {}, {}, {}, {}, {},
    {}, {}, {}, {}, {}, {},
    {}, {}, {}, {}, {}, {},
    {}, {}, {}, {}, {}, {},
    {}, {}, {}, {}, {}, {},
    {}, {}, {}, {}, {}, {},
    {}, {}, {}, {}, {}, {},
    {}, {}, {}, {}, {}, {},
    {}, {}, {}, {}, {}, {},
    {}, {}, {}, {}, {}, {},
    {}, {}, {}, {}, {}, {},
    {}, {}, {}, {}, {}, {},
    {}, {}, {}, {}, {}, {},
    {}, {}, {}, {}, {}, {},
    {}, {}, {}, {}, {}, {},
    {}, {}, {}, {}, {}, {},
    {}, {}, {}, {}, {}, {},
    {}, {}, {}, {}, {}, {},
    {}, {}, {}, {}, {}, {},
    {}, {}, {}, {}, {}, {},
    {}, {}, {}, {}, {}, {},
    {}, {}, {}, {}, {}, {},
    {}, {}, {}, {}, {}, {},
    {}, {}, {}, {}, {}, {},
    {}, {}, {}, {}, {}, {},
    {}, {}, {}, {}, {}, {},
    {}, {}, {}, {}, {}, {},
    {}, {}, {}, {}, {}, {},
    {}, {}, {}, {}, {}, {},
    {}, {}, {}, {}, {}, {},
    {}, {}, {}, {}, {}, {},
    {}, {}, {}, {}, {}, {},
    {}, {}, {}, {}, {}, {},
    {}, {}, {}, {}, {}, {},
    {}, {}, {}, {}, {}, {},
    {}, {}, {}, {}, {}, {},
    {}, {}, {}, {}, {}, {},
    {}, {}, {}, {}, {}, {},
    {}, {}, {}, {}, {}, {},
    {}, {}, {}, {}, {}, {},
    {}, {}, {}, {}, {}, {},
    {}, {}, {}, {}, {}, {},
    {}, {}, {}, {}, {}, {},
    {}, {}, {}, {}, {}, {},
    {}, {}, {}, {}, {}, {},
    {}, {}, {}, {}, {}, {},
    {}, {}, {}, {}, {}, {},
    {}, {}, {}, {}, {}, {},
    {}, {}, {}, {}, {}, {},
    {}, {}, {}, {}, {}, {},
    {}, {}, {}, {}, {}, {},
    {}, {}, {}, {}, {}, {},
    {}, {}, {}, {}, {}, {},
    {}, {}, {}, {}, {}, {},
    {}, {}, {}, {}, {}, {},
    {}, {}, {}, {}, {}, {},
    {}, {}, {}, {}, {}, {},
    {}, {}, {}, {}, {}, {},
    {}, {}, {}, {}, {}, {},
    {}, {}, {}, {}, {}, {},
    {}, {}, {}, {}, {}, {},
    {}, {}, {}, {}, {}, {},

  % k = 2
    {}, {}, {}, {}, {}, {},
    {}, {}, {}, {}, {}, {},
    {}, {}, {}, {}, {}, {},
    {}, {}, {}, {}, {}, {},
    {}, {}, {}, {}, {}, {},
    {}, {}, {}, {}, {}, {},
    {}, {}, {}, {}, {}, {},
    {}, {}, {}, {}, {}, {},
    {}, {}, {}, {}, {}, {},
    {}, {}, {}, {}, {}, {},
    {}, {}, {}, {}, {}, {},
    {}, {}, {}, {}, {}, {},
    {}, {}, {}, {}, {}, {},
    {}, {}, {}, {}, {}, {},
    {}, {}, {}, {}, {}, {},
    {}, {}, {}, {}, {}, {},
    {}, {}, {}, {}, {}, {},
    {}, {}, {}, {}, {}, {},
    {}, {}, {}, {}, {}, {},
    {}, {}, {}, {}, {}, {},
    {}, {}, {}, {}, {}, {},
    {}, {}, {}, {}, {}, {},
    {}, {}, {}, {}, {}, {},
    {}, {}, {}, {}, {}, {},
    {}, {}, {}, {}, {}, {},
    {}, {}, {}, {}, {}, {},
    {}, {}, {}, {}, {}, {},
    {}, {}, {}, {}, {}, {},
    {}, {}, {}, {}, {}, {},
    {}, {}, {}, {}, {}, {},
    {}, {}, {}, {}, {}, {},
    {}, {}, {}, {}, {}, {},
    {}, {}, {}, {}, {}, {},
    {}, {}, {}, {}, {}, {},
    {}, {}, {}, {}, {}, {},
    {}, {}, {}, {}, {}, {},
    {}, {}, {}, {}, {}, {},
    {}, {}, {}, {}, {}, {},
    {}, {}, {}, {}, {}, {},
    {}, {}, {}, {}, {}, {},
    {}, {}, {}, {}, {}, {},
    {}, {}, {}, {}, {}, {},
    {}, {}, {}, {}, {}, {},
    {}, {}, {}, {}, {}, {},
    {}, {}, {}, {}, {}, {},
    {}, {}, {}, {}, {}, {},
    {}, {}, {}, {}, {}, {},
    {}, {}, {}, {}, {}, {},
    {}, {}, {}, {}, {}, {},
    {}, {}, {}, {}, {}, {},
    {}, {}, {}, {}, {}, {},
    {}, {}, {}, {}, {}, {},
    {}, {}, {}, {}, {}, {},
    {}, {}, {}, {}, {}, {},
    {}, {}, {}, {}, {}, {},
    {}, {}, {}, {}, {}, {},
    {}, {}, {}, {}, {}, {},
    {}, {}, {}, {}, {}, {},
    {}, {}, {}, {}, {}, {},
    {}, {}, {}, {}, {}, {},
    {}, {}, {}, {}, {}, {},
    {}, {}, {}, {}, {}, {},
    {}, {}, {}, {}, {}, {},
    {}, {}, {}, {}, {}, {},
    {}, {}, {}, {}, {}, {},
    {}, {}, {}, {}, {}, {},
    {}, {}, {}, {}, {}, {},
    {}, {}, {}, {}, {}, {},
    {}, {}, {}, {}, {}, {},
    {}, {}, {}, {}, {}, {},
    {}, {}, {}, {}, {}, {},
    {}, {}, {}, {}, {}, {},
    {}, {}, {}, {}, {}, {},
    {}, {}, {}, {}, {}, {},
    {}, {}, {}, {}, {}, {},
    {}, {}, {}, {}, {}, {},
    {}, {}, {}, {}, {}, {},
    {}, {}, {}, {}, {}, {},
    {}, {}, {}, {}, {}, {},
    {}, {}, {}, {}, {}, {},
    {}, {}, {}, {}, {}, {},
    {}, {}, {}, {}, {}, {},
    {}, {}, {}, {}, {}, {},
    {}, {}, {}, {}, {}, {},
    {}, {}, {}, {}, {}, {},
    {}, {}, {}, {}, {}, {},
    {}, {}, {}, {}, {}, {},
    {}, {}, {}, {}, {}, {},
    {}, {}, {}, {}, {}, {},
    {}, {}, {}, {}, {}, {},
    {}, {}, {}, {}, {}, {},
    {}, {}, {}, {}, {}, {},
    {}, {}, {}, {}, {}, {},
    {}, {}, {}, {}, {}, {},
    {}, {}, {}, {}, {}, {},
    {}, {}, {}, {}, {}, {},
    {}, {}, {}, {}, {}, {},
    {}, {}, {}, {}, {}, {},
    {}, {}, {}, {}, {}, {},

  % k = 3
    {}, {}, {}, {}, {}, {},
    {}, {}, {}, {}, {}, {},
    {}, {}, {}, {}, {}, {},
    {}, {}, {}, {}, {}, {},
    {}, {}, {}, {}, {}, {},
    {}, {}, {}, {}, {}, {},
    {}, {}, {}, {}, {}, {},
    {}, {}, {}, {}, {}, {},
    {}, {}, {}, {}, {}, {},
    {}, {}, {}, {}, {}, {},
    {}, {}, {}, {}, {}, {},
    {}, {}, {}, {}, {}, {},
    {}, {}, {}, {}, {}, {},
    {}, {}, {}, {}, {}, {},
    {}, {}, {}, {}, {}, {},
    {}, {}, {}, {}, {}, {},
    {}, {}, {}, {}, {}, {},
    {}, {}, {}, {}, {}, {},
    {}, {}, {}, {}, {}, {},
    {}, {}, {}, {}, {}, {},
    {}, {}, {}, {}, {}, {},
    {}, {}, {}, {}, {}, {},
    {}, {}, {}, {}, {}, {},
    {}, {}, {}, {}, {}, {},
    {}, {}, {}, {}, {}, {},
    {}, {}, {}, {}, {}, {},
    {}, {}, {}, {}, {}, {},
    {}, {}, {}, {}, {}, {},
    {}, {}, {}, {}, {}, {},
    {}, {}, {}, {}, {}, {},
    {}, {}, {}, {}, {}, {},
    {}, {}, {}, {}, {}, {},
    {}, {}, {}, {}, {}, {},
    {}, {}, {}, {}, {}, {},
    {}, {}, {}, {}, {}, {},
    {}, {}, {}, {}, {}, {},
    {}, {}, {}, {}, {}, {},
    {}, {}, {}, {}, {}, {},
    {}, {}, {}, {}, {}, {},
    {}, {}, {}, {}, {}, {},
    {}, {}, {}, {}, {}, {},
    {}, {}, {}, {}, {}, {},
    {}, {}, {}, {}, {}, {},
    {}, {}, {}, {}, {}, {},
    {}, {}, {}, {}, {}, {},
    {}, {}, {}, {}, {}, {},
    {}, {}, {}, {}, {}, {},
    {}, {}, {}, {}, {}, {},
    {}, {}, {}, {}, {}, {},
    {}, {}, {}, {}, {}, {},
    {}, {}, {}, {}, {}, {},
    {}, {}, {}, {}, {}, {},
    {}, {}, {}, {}, {}, {},
    {}, {}, {}, {}, {}, {},
    {}, {}, {}, {}, {}, {},
    {}, {}, {}, {}, {}, {},
    {}, {}, {}, {}, {}, {},
    {}, {}, {}, {}, {}, {},
    {}, {}, {}, {}, {}, {},
    {}, {}, {}, {}, {}, {},
    {}, {}, {}, {}, {}, {},
    {}, {}, {}, {}, {}, {},
    {}, {}, {}, {}, {}, {},
    {}, {}, {}, {}, {}, {},
    {}, {}, {}, {}, {}, {},
    {}, {}, {}, {}, {}, {},
    {}, {}, {}, {}, {}, {},
    {}, {}, {}, {}, {}, {},
    {}, {}, {}, {}, {}, {},
    {}, {}, {}, {}, {}, {},
    {}, {}, {}, {}, {}, {},
    {}, {}, {}, {}, {}, {},
    {}, {}, {}, {}, {}, {},
    {}, {}, {}, {}, {}, {},
    {}, {}, {}, {}, {}, {},
    {}, {}, {}, {}, {}, {},
    {}, {}, {}, {}, {}, {},
    {}, {}, {}, {}, {}, {},
    {}, {}, {}, {}, {}, {},
    {}, {}, {}, {}, {}, {},
    {}, {}, {}, {}, {}, {},
    {}, {}, {}, {}, {}, {},
    {}, {}, {}, {}, {}, {},
    {}, {}, {}, {}, {}, {},
    {}, {}, {}, {}, {}, {},
    {}, {}, {}, {}, {}, {},
    {}, {}, {}, {}, {}, {},
    {}, {}, {}, {}, {}, {},
    {}, {}, {}, {}, {}, {},
    {}, {}, {}, {}, {}, {},
    {}, {}, {}, {}, {}, {},
    {}, {}, {}, {}, {}, {},
    {}, {}, {}, {}, {}, {},
    {}, {}, {}, {}, {}, {},
    {}, {}, {}, {}, {}, {},
    {}, {}, {}, {}, {}, {},
    {}, {}, {}, {}, {}, {},
    {}, {}, {}, {}, {}, {},
    {}, {}, {}, {}, {}, {},

  % k = 4
    {}, {}, {}, {}, {}, {},
    {}, {}, {}, {}, {}, {},
    {}, {}, {}, {}, {}, {},
    {}, {}, {}, {}, {}, {},
    {}, {}, {}, {}, {}, {},
    {}, {}, {}, {}, {}, {},
    {}, {}, {}, {}, {}, {},
    {}, {}, {}, {}, {}, {},
    {}, {}, {}, {}, {}, {},
    {}, {}, {}, {}, {}, {},
    {}, {}, {}, {}, {}, {},
    {}, {}, {}, {}, {}, {},
    {}, {}, {}, {}, {}, {},
    {}, {}, {}, {}, {}, {},
    {}, {}, {}, {}, {}, {},
    {}, {}, {}, {}, {}, {},
    {}, {}, {}, {}, {}, {},
    {}, {}, {}, {}, {}, {},
    {}, {}, {}, {}, {}, {},
    {}, {}, {}, {}, {}, {},
    {}, {}, {}, {}, {}, {},
    {}, {}, {}, {}, {}, {},
    {}, {}, {}, {}, {}, {},
    {}, {}, {}, {}, {}, {},
    {}, {}, {}, {}, {}, {},
    {}, {}, {}, {}, {}, {},
    {}, {}, {}, {}, {}, {},
    {}, {}, {}, {}, {}, {},
    {}, {}, {}, {}, {}, {},
    {}, {}, {}, {}, {}, {},
    {}, {}, {}, {}, {}, {},
    {}, {}, {}, {}, {}, {},
    {}, {}, {}, {}, {}, {},
    {}, {}, {}, {}, {}, {},
    {}, {}, {}, {}, {}, {},
    {}, {}, {}, {}, {}, {},
    {}, {}, {}, {}, {}, {},
    {}, {}, {}, {}, {}, {},
    {}, {}, {}, {}, {}, {},
    {}, {}, {}, {}, {}, {},
    {}, {}, {}, {}, {}, {},
    {}, {}, {}, {}, {}, {},
    {}, {}, {}, {}, {}, {},
    {}, {}, {}, {}, {}, {},
    {}, {}, {}, {}, {}, {},
    {}, {}, {}, {}, {}, {},
    {}, {}, {}, {}, {}, {},
    {}, {}, {}, {}, {}, {},
    {}, {}, {}, {}, {}, {},
    {}, {}, {}, {}, {}, {},
    {}, {}, {}, {}, {}, {},
    {}, {}, {}, {}, {}, {},
    {}, {}, {}, {}, {}, {},
    {}, {}, {}, {}, {}, {},
    {}, {}, {}, {}, {}, {},
    {}, {}, {}, {}, {}, {},
    {}, {}, {}, {}, {}, {},
    {}, {}, {}, {}, {}, {},
    {}, {}, {}, {}, {}, {},
    {}, {}, {}, {}, {}, {},
    {}, {}, {}, {}, {}, {},
    {}, {}, {}, {}, {}, {},
    {}, {}, {}, {}, {}, {},
    {}, {}, {}, {}, {}, {},
    {}, {}, {}, {}, {}, {},
    {}, {}, {}, {}, {}, {},
    {}, {}, {}, {}, {}, {},
    {}, {}, {}, {}, {}, {},
    {}, {}, {}, {}, {}, {},
    {}, {}, {}, {}, {}, {},
    {}, {}, {}, {}, {}, {},
    {}, {}, {}, {}, {}, {},
    {}, {}, {}, {}, {}, {},
    {}, {}, {}, {}, {}, {},
    {}, {}, {}, {}, {}, {},
    {}, {}, {}, {}, {}, {},
    {}, {}, {}, {}, {}, {},
    {}, {}, {}, {}, {}, {},
    {}, {}, {}, {}, {}, {},
    {}, {}, {}, {}, {}, {},
    {}, {}, {}, {}, {}, {},
    {}, {}, {}, {}, {}, {},
    {}, {}, {}, {}, {}, {},
    {}, {}, {}, {}, {}, {},
    {}, {}, {}, {}, {}, {},
    {}, {}, {}, {}, {}, {},
    {}, {}, {}, {}, {}, {},
    {}, {}, {}, {}, {}, {},
    {}, {}, {}, {}, {}, {},
    {}, {}, {}, {}, {}, {},
    {}, {}, {}, {}, {}, {},
    {}, {}, {}, {}, {}, {},
    {}, {}, {}, {}, {}, {},
    {}, {}, {}, {}, {}, {},
    {}, {}, {}, {}, {}, {},
    {}, {}, {}, {}, {}, {},
    {}, {}, {}, {}, {}, {},
    {}, {}, {}, {}, {}, {},
    {}, {}, {}, {}, {}, {},

  % k = 5
    {}, {}, {}, {}, {}, {},
    {}, {}, {}, {}, {}, {},
    {}, {}, {}, {}, {}, {},
    {}, {}, {}, {}, {}, {},
    {}, {}, {}, {}, {}, {},
    {}, {}, {}, {}, {}, {},
    {}, {}, {}, {}, {}, {},
    {}, {}, {}, {}, {}, {},
    {}, {}, {}, {}, {}, {},
    {}, {}, {}, {}, {}, {},
    {}, {}, {}, {}, {}, {},
    {}, {}, {}, {}, {}, {},
    {}, {}, {}, {}, {}, {},
    {}, {}, {}, {}, {}, {},
    {}, {}, {}, {}, {}, {},
    {}, {}, {}, {}, {}, {},
    {}, {}, {}, {}, {}, {},
    {}, {}, {}, {}, {}, {},
    {}, {}, {}, {}, {}, {},
    {}, {}, {}, {}, {}, {},
    {}, {}, {}, {}, {}, {},
    {}, {}, {}, {}, {}, {},
    {}, {}, {}, {}, {}, {},
    {}, {}, {}, {}, {}, {},
    {}, {}, {}, {}, {}, {},
    {}, {}, {}, {}, {}, {},
    {}, {}, {}, {}, {}, {},
    {}, {}, {}, {}, {}, {},
    {}, {}, {}, {}, {}, {},
    {}, {}, {}, {}, {}, {},
    {}, {}, {}, {}, {}, {},
    {}, {}, {}, {}, {}, {},
    {}, {}, {}, {}, {}, {},
    {}, {}, {}, {}, {}, {},
    {}, {}, {}, {}, {}, {},
    {}, {}, {}, {}, {}, {},
    {}, {}, {}, {}, {}, {},
    {}, {}, {}, {}, {}, {},
    {}, {}, {}, {}, {}, {},
    {}, {}, {}, {}, {}, {},
    {}, {}, {}, {}, {}, {},
    {}, {}, {}, {}, {}, {},
    {}, {}, {}, {}, {}, {},
    {}, {}, {}, {}, {}, {},
    {}, {}, {}, {}, {}, {},
    {}, {}, {}, {}, {}, {},
    {}, {}, {}, {}, {}, {},
    {}, {}, {}, {}, {}, {},
    {}, {}, {}, {}, {}, {},
    {}, {}, {}, {}, {}, {},
    {}, {}, {}, {}, {}, {},
    {}, {}, {}, {}, {}, {},
    {}, {}, {}, {}, {}, {},
    {}, {}, {}, {}, {}, {},
    {}, {}, {}, {}, {}, {},
    {}, {}, {}, {}, {}, {},
    {}, {}, {}, {}, {}, {},
    {}, {}, {}, {}, {}, {},
    {}, {}, {}, {}, {}, {},
    {}, {}, {}, {}, {}, {},
    {}, {}, {}, {}, {}, {},
    {}, {}, {}, {}, {}, {},
    {}, {}, {}, {}, {}, {},
    {}, {}, {}, {}, {}, {},
    {}, {}, {}, {}, {}, {},
    {}, {}, {}, {}, {}, {},
    {}, {}, {}, {}, {}, {},
    {}, {}, {}, {}, {}, {},
    {}, {}, {}, {}, {}, {},
    {}, {}, {}, {}, {}, {},
    {}, {}, {}, {}, {}, {},
    {}, {}, {}, {}, {}, {},
    {}, {}, {}, {}, {}, {},
    {}, {}, {}, {}, {}, {},
    {}, {}, {}, {}, {}, {},
    {}, {}, {}, {}, {}, {},
    {}, {}, {}, {}, {}, {},
    {}, {}, {}, {}, {}, {},
    {}, {}, {}, {}, {}, {},
    {}, {}, {}, {}, {}, {},
    {}, {}, {}, {}, {}, {},
    {}, {}, {}, {}, {}, {},
    {}, {}, {}, {}, {}, {},
    {}, {}, {}, {}, {}, {},
    {}, {}, {}, {}, {}, {},
    {}, {}, {}, {}, {}, {},
    {}, {}, {}, {}, {}, {},
    {}, {}, {}, {}, {}, {},
    {}, {}, {}, {}, {}, {},
    {}, {}, {}, {}, {}, {},
    {}, {}, {}, {}, {}, {},
    {}, {}, {}, {}, {}, {},
    {}, {}, {}, {}, {}, {},
    {}, {}, {}, {}, {}, {},
    {}, {}, {}, {}, {}, {},
    {}, {}, {}, {}, {}, {},
    {}, {}, {}, {}, {}, {},
    {}, {}, {}, {}, {}, {},
    {}, {}, {}, {}, {}, {}
]);
